(set-logic HORN)
(declare-fun state (Int Int Int Bool Int (Array Int Int) Int Int Bool Int (Array Int Int) Int) Bool)
(assert (forall ((|.x.14| Int) (|main@%.0.i_0_0| Int) (|main@%_11_0_0| Int) (|main@%assume.flag.0_0_0| Bool) (|main@%_4_0_0| Int) (|main@%shadow.mem.1_0_0| (Array Int Int)) (|main@%_13_0_0| Int) (|main@%_1_0_0| Int) (|main@%_3_0_0| Bool) (|main@%.01.i1_0_0| Int) (|main@%shadow.mem.0_0_0| (Array Int Int)) (|main@%_17_0| Int) (|main@%_1_1| Int) (|main@%_3_1| Bool) (|main@%_4_1| Int) (|main@%.01.i1_2| Int) (|.x.15| Int) (|.x.16| Int) (|.x.17| Int) (|.x.18| Bool) (|.x.19| (Array Int Int)) (|.x.20| Int) (|main@%shadow.mem.0_2| (Array Int Int)) (|.xtv.1| Int)) (=> (= .x.14 0) (state |.x.14| |main@%.0.i_0_0| |main@%_11_0_0| |main@%assume.flag.0_0_0| |main@%_4_0_0| |main@%shadow.mem.1_0_0| |main@%_13_0_0| |main@%_1_0_0| |main@%_3_0_0| |main@%.01.i1_0_0| |main@%shadow.mem.0_0_0| |main@%_17_0|))))
(assert (forall ((|.x.14| Int) (|main@%.0.i_0_0| Int) (|main@%_11_0_0| Int) (|main@%assume.flag.0_0_0| Bool) (|main@%_4_0_0| Int) (|main@%shadow.mem.1_0_0| (Array Int Int)) (|main@%_13_0_0| Int) (|main@%_1_0_0| Int) (|main@%_3_0_0| Bool) (|main@%.01.i1_0_0| Int) (|main@%shadow.mem.0_0_0| (Array Int Int)) (|main@%_17_0| Int) (|main@%_1_1| Int) (|main@%_3_1| Bool) (|main@%_4_1| Int) (|main@%.01.i1_2| Int) (|.x.15| Int) (|.x.16| Int) (|.x.17| Int) (|.x.18| Bool) (|.x.19| (Array Int Int)) (|.x.20| Int) (|main@%shadow.mem.0_2| (Array Int Int)) (|.xtv.1| Int)) (=> (and (state |.x.14| |main@%.0.i_0_0| |main@%_11_0_0| |main@%assume.flag.0_0_0| |main@%_4_0_0| |main@%shadow.mem.1_0_0| |main@%_13_0_0| |main@%_1_0_0| |main@%_3_0_0| |main@%.01.i1_0_0| |main@%shadow.mem.0_0_0| |main@%_17_0|) (let ((.def_25 (<= main@%_1_1 0))) (let ((.def_26 (not .def_25))) (let ((.def_38 (= .x.15 1))) (let ((.def_41 (= main@%.0.i_0_0 .x.16))) (let ((.def_44 (= main@%_11_0_0 .x.17))) (let ((.def_47 (= main@%assume.flag.0_0_0 .x.18))) (let ((.def_50 (= main@%shadow.mem.1_0_0 .x.19))) (let ((.def_53 (= main@%_13_0_0 .x.20))) (let ((.def_64 (= .x.16 0))) (let ((.def_68 (= .x.15 2))) (let ((.def_70 (= main@%.01.i1_0_0 main@%.01.i1_2))) (let ((.def_73 (= main@%shadow.mem.0_0_0 main@%shadow.mem.0_2))) (let ((.def_79 (<= (+ main@%_1_0_0 (* (- 1) main@%.01.i1_0_0)) 1))) (let ((.def_85 (store main@%shadow.mem.0_0_0 (+ main@%_4_0_0 main@%.01.i1_0_0) main@%.01.i1_0_0))) (let ((.def_95 (<= main@%_4_0_0 0))) (let ((.def_96 (not .def_95))) (let ((.def_100 (or .def_95 (not (<= (+ main@%_4_0_0 main@%.01.i1_0_0) 0))))) (let ((.def_102 (= .x.14 1))) (let ((.def_104 (= main@%_4_0_0 main@%_4_1))) (let ((.def_106 (= main@%_1_0_0 main@%_1_1))) (let ((.def_108 (= main@%_3_0_0 main@%_3_1))) (let ((.def_134 (select main@%shadow.mem.1_0_0 main@%_17_0))) (let ((.def_135 (<= .def_134 main@%_13_0_0))) (let ((.def_138 (not (<= main@%_11_0_0 main@%.0.i_0_0)))) (let ((.def_159 (or .def_95 (not (<= main@%_17_0 0))))) (let ((.def_164 (= (+ main@%.0.i_0_0 (+ main@%_4_0_0 (* (- 1) main@%_17_0))) (- 1)))) (let ((.def_166 (= .x.14 2))) (or (or (or (or (and (and (= .def_26 main@%_3_1) (and (= .x.14 0) (not (<= main@%_4_1 0)))) (or (and (= main@%.01.i1_2 0) (and (and (and (and (and (and .def_26 .def_38) .def_41) .def_44) .def_47) .def_50) .def_53)) (and (and (and (and (= (+ main@%_1_1 (* (- 1) .x.17)) 1) (and (and .def_25 (= main@%_3_1 .x.18)) .def_64)) .def_68) .def_70) .def_73))) (and (and (and (and (and (and (and (not .def_79) (and (= (+ main@%.01.i1_0_0 (* (- 1) main@%.01.i1_2)) (- 1)) (and (= main@%shadow.mem.0_2 .def_85) (and .def_53 (and .def_50 (and .def_47 (and .def_44 (and .def_38 .def_41)))))))) .def_96) .def_100) .def_102) .def_104) .def_106) .def_108)) (and (= .x.19 .def_85) (and (= (+ main@%_1_0_0 (* (- 1) .x.17)) 1) (and (= main@%_3_0_0 .x.18) (and (= .x.20 (select .def_85 main@%_4_0_0)) (and .def_108 (and .def_106 (and .def_104 (and .def_102 (and .def_100 (and .def_96 (and .def_79 (and .def_73 (and .def_70 (and .def_64 .def_68))))))))))))))) (and (and (and (and (not .def_135) (and (= .x.18 (and main@%assume.flag.0_0_0 .def_138)) (and (= (+ main@%.0.i_0_0 (* (- 1) .x.16)) (- 1)) (and (= .x.20 .def_134) (and .def_108 (and .def_106 (and .def_104 (and .def_96 (and .def_73 (and .def_70 (and .def_68 (and .def_44 .def_50)))))))))))) .def_159) .def_164) .def_166)) (and (= .x.15 3) (and .def_166 (and .def_164 (and .def_159 (and .def_135 (and .def_138 (and .def_108 (and .def_106 (and .def_104 (and .def_96 (and .def_73 (and .def_70 (and .def_53 (and .def_50 (and .def_47 (and .def_44 (and main@%assume.flag.0_0_0 .def_41)))))))))))))))))))))))))))))))))))))))))))))) (state |.x.15| |.x.16| |.x.17| |.x.18| |main@%_4_1| |.x.19| |.x.20| |main@%_1_1| |main@%_3_1| |main@%.01.i1_2| |main@%shadow.mem.0_2| |.xtv.1|))))
(assert (forall ((|.x.14| Int) (|main@%.0.i_0_0| Int) (|main@%_11_0_0| Int) (|main@%assume.flag.0_0_0| Bool) (|main@%_4_0_0| Int) (|main@%shadow.mem.1_0_0| (Array Int Int)) (|main@%_13_0_0| Int) (|main@%_1_0_0| Int) (|main@%_3_0_0| Bool) (|main@%.01.i1_0_0| Int) (|main@%shadow.mem.0_0_0| (Array Int Int)) (|main@%_17_0| Int) (|main@%_1_1| Int) (|main@%_3_1| Bool) (|main@%_4_1| Int) (|main@%.01.i1_2| Int) (|.x.15| Int) (|.x.16| Int) (|.x.17| Int) (|.x.18| Bool) (|.x.19| (Array Int Int)) (|.x.20| Int) (|main@%shadow.mem.0_2| (Array Int Int)) (|.xtv.1| Int)) (=> (state |.x.14| |main@%.0.i_0_0| |main@%_11_0_0| |main@%assume.flag.0_0_0| |main@%_4_0_0| |main@%shadow.mem.1_0_0| |main@%_13_0_0| |main@%_1_0_0| |main@%_3_0_0| |main@%.01.i1_0_0| |main@%shadow.mem.0_0_0| |main@%_17_0|) (not (= .x.14 3)))))
(check-sat)
